183
177
193
186
49
162
90
163
140
172
11
167
182
62
67
129
22
69
193
11
29
21
184
198
115
13
91
156
62
196
105
84
136
46
113
124
182
14
34
43
87
76
188
3
154
132
76
139
26
94
195
34
67
97
117
52
101
86
65
44
40
31
97
81
109
167
97
186
106
19
128
132
103
70
108
140
196
18
46
121
179
164
41
193
34
124
187
143
27
59
32
37
75
74
58
29
35
18
143
128
